param set_len = 22;
param target_sum = 180538;
param values := [0] 14114 [1] 24114 [2] 19617 [3] 15883 [4] 12223 [5] 29221 [6] 1913 [7] 12555 [8] 20688 [9] 2480 [10] 14675 [11] 4031 [12] 2564 [13] 21205 [14] 94 [15] 19 [16] 623 [17] 29432 [18] 5472 [19] 12619 [20] 22651 [21] 31491 ;
